data/CVRPLIB/Vrp-Set-XML100/instances/XML100_3214_24.vrp
NAME : XML100_3214_24
COMMENT : Generated by Queiroga, Sadykov, Uchoa, and Vidal (2021)
TYPE : CVRP
DIMENSION : 101
EDGE_WEIGHT_TYPE : EUC_2D
CAPACITY : 12
NODE_COORD_SECTION
1    0    0   
2    954  918 
3    731  243 
4    682  192 
5    908  982 
6    325  131 
7    215  28  
8    646  544 
9    844  209 
10   273  279 
11   986  71  
12   814  265 
13   291  145 
14   682  259 
15   798  237 
16   168  185 
17   556  532 
18   942  958 
19   825  249 
20   482  630 
21   504  621 
22   901  917 
23   976  844 
24   692  799 
25   921  960 
26   360  114 
27   623  374 
28   948  922 
29   676  242 
30   896  365 
31   905  208 
32   542  658 
33   824  255 
34   734  987 
35   926  876 
36   51   220 
37   990  855 
38   306  147 
39   548  504 
40   569  577 
41   656  680 
42   955  972 
43   245  126 
44   878  992 
45   806  140 
46   903  168 
47   843  967 
48   423  27  
49   581  268 
50   682  582 
51   776  927 
52   432  171 
53   309  122 
54   540  520 
55   799  286 
56   572  184 
57   993  463 
58   862  158 
59   783  516 
60   605  751 
61   891  158 
62   565  299 
63   916  889 
64   636  236 
65   510  594 
66   938  209 
67   795  248 
68   867  983 
69   651  470 
70   430  532 
71   632  201 
72   525  644 
73   251  166 
74   356  90  
75   660  519 
76   585  561 
77   332  163 
78   734  609 
79   305  59  
80   584  375 
81   257  148 
82   840  110 
83   511  135 
84   810  870 
85   461  154 
86   923  997 
87   911  228 
88   393  115 
89   986  371 
90   896  886 
91   586  325 
92   442  123 
93   601  900 
94   970  976 
95   525  506 
96   948  906 
97   892  852 
98   894  229 
99   186  43  
100  399  272 
101  555  621 
DEMAND_SECTION
1    0   
2    1   
3    1   
4    1   
5    1   
6    1   
7    1   
8    1   
9    1   
10   1   
11   1   
12   1   
13   1   
14   1   
15   1   
16   1   
17   1   
18   1   
19   1   
20   1   
21   1   
22   1   
23   1   
24   1   
25   1   
26   1   
27   1   
28   1   
29   1   
30   1   
31   1   
32   1   
33   1   
34   1   
35   1   
36   1   
37   1   
38   1   
39   1   
40   1   
41   1   
42   1   
43   1   
44   1   
45   1   
46   1   
47   1   
48   1   
49   1   
50   1   
51   1   
52   1   
53   1   
54   1   
55   1   
56   1   
57   1   
58   1   
59   1   
60   1   
61   1   
62   1   
63   1   
64   1   
65   1   
66   1   
67   1   
68   1   
69   1   
70   1   
71   1   
72   1   
73   1   
74   1   
75   1   
76   1   
77   1   
78   1   
79   1   
80   1   
81   1   
82   1   
83   1   
84   1   
85   1   
86   1   
87   1   
88   1   
89   1   
90   1   
91   1   
92   1   
93   1   
94   1   
95   1   
96   1   
97   1   
98   1   
99   1   
100  1   
101  1   
DEPOT_SECTION
1
-1
EOF
