data/CVRPLIB/Vrp-Set-XML100/solutions/XML100_3214_24.sol
Route #1: 92 33 46 67 43 4 85 93 41 17 24 50
Route #2: 47 44 81 57 60 45 10 65 30 86 97 8
Route #3: 9 94 38 53 16 75 39 100 71 20 64 69
Route #4: 98 6 78 73 87 25 76 5 52 37 12 42
Route #5: 35 15 72 80
Route #6: 23 83 21 27 1 95 36 22 34 62 89 96
Route #7: 2 66 14 18 32 11 54 29 88 56 58 79
Route #8: 51 61 48 63 13 28 3 70 55 82 84 91
Route #9: 99 90 26 68 74 7 49 77 40 59 31 19
Cost 17600
